[TITLE]
MirrorCity illustrative storm drains under the LiDAR street (designed, not surveyed)

[OPTIONS]
FLOW_UNITS           CMS
FLOW_ROUTING         DYNWAVE
START_DATE           01/01/2026
START_TIME           00:00:00
END_DATE             01/02/2026
END_TIME             00:00:00
REPORT_STEP          00:05:00
ROUTING_STEP         0:00:01
ALLOW_PONDING        NO

[JUNCTIONS]
;;Name Elev MaxDepth
IN1 -4.108 1.304
IN2 -3.585 1.304
IN3 -3.181 1.300
IN4 -3.107 1.304
IN5 -3.028 1.300
IN6 -3.010 1.304
IN7 -2.943 1.300

[OUTFALLS]
;;Name Elev Type
OUTFALL -4.124 FREE

[CONDUITS]
;;Name From To Length Roughness InOffset OutOffset
P1 IN7 IN6 20.00 0.013 0 0
P2 IN6 IN4 20.10 0.013 0 0
P3 IN5 IN3 20.00 0.013 0 0
P4 IN4 IN2 20.40 0.013 0 0
P5 IN3 IN2 20.59 0.013 0 0
P6 IN2 IN1 20.59 0.013 0 0
P7 IN1 OUTFALL 5.00 0.013 0 0

[XSECTIONS]
;;Link Shape Geom1 Geom2 Geom3 Geom4 Barrels
P1 CIRCULAR 0.3 0 0 0 1
P2 CIRCULAR 0.3 0 0 0 1
P3 CIRCULAR 0.3 0 0 0 1
P4 CIRCULAR 0.3 0 0 0 1
P5 CIRCULAR 0.3 0 0 0 1
P6 CIRCULAR 0.3 0 0 0 1
P7 CIRCULAR 0.3 0 0 0 1

[COORDINATES]
;;Inlet grid column row
IN1 15 31
IN2 20 22
IN3 15 13
IN4 30 20
IN5 7 7
IN6 40 19
IN7 50 19

[REPORT]
NODES ALL
LINKS ALL
