[TITLE]
MirrorCity SWMM spike - small street sewer

[OPTIONS]
FLOW_UNITS           CMS
INFILTRATION         HORTON
FLOW_ROUTING         DYNWAVE
START_DATE           01/01/2026
START_TIME           00:00:00
REPORT_START_DATE    01/01/2026
REPORT_START_TIME    00:00:00
END_DATE             01/01/2026
END_TIME             02:00:00
WET_STEP             00:00:15
DRY_STEP             00:05:00
REPORT_STEP          00:05:00
ROUTING_STEP         0:00:05

[RAINGAGES]
;;Name  Format    Interval SCF  Source
RG1     INTENSITY 0:10     1.0  TIMESERIES STORM

[TIMESERIES]
;;Name  Time   Value (mm/h)
STORM   0:00   10
STORM   0:10   40
STORM   0:20   100
STORM   0:30   100
STORM   0:40   40
STORM   0:50   10
STORM   1:00   0

[SUBCATCHMENTS]
;;Name Gage Outlet Area(ha) %Imperv Width(m) %Slope CurbLen
S1     RG1  J1     1.2      70      120      1.5    0
S2     RG1  J2     0.8      85      90       1.0    0

[SUBAREAS]
;;Subcatch N-Imperv N-Perv S-Imperv S-Perv PctZero RouteTo
S1       0.013    0.24   1.5      5      25      OUTLET
S2       0.013    0.24   1.5      5      25      OUTLET

[INFILTRATION]
;;Subcatch MaxRate MinRate Decay DryTime MaxInfil
S1       75      6       4     7       0
S2       75      6       4     7       0

[JUNCTIONS]
;;Name Elev MaxDepth
J1     100.0 2.5
J2     99.4  2.5
J3     98.9  2.5

[OUTFALLS]
;;Name Elev Type
OUT1   98.2  FREE

[CONDUITS]
;;Name From To   Length Roughness InOffset OutOffset
C1     J1   J2   60     0.013     0        0
C2     J2   J3   50     0.013     0        0
C3     J3   OUT1 70     0.013     0        0

[XSECTIONS]
;;Link Shape    Geom1 Geom2 Geom3 Geom4 Barrels
C1     CIRCULAR 0.45  0     0     0     1
C2     CIRCULAR 0.60  0     0     0     1
C3     CIRCULAR 0.60  0     0     0     1

[REPORT]
SUBCATCHMENTS ALL
NODES ALL
LINKS ALL
